(set-option :print-success false)
(set-logic QF_UF)
(declare-sort x69 0)
(declare-sort x92 0)
(declare-fun x63 () x92)
(declare-fun x3 (x92 x92) x92)
(declare-fun x68 () x92)
(declare-fun x13 () x92)
(declare-fun x18 (x92 x92) x92)
(declare-fun x130 () x92)
(declare-fun x158 () x92)
(assert (let ((x113 (= (x3 x63 x63) x63)) (x45 (= x158 (x3 x158 x158))) (x62 (= (x3 x13 x13) x13)) (x47 (= x130 (x3 x130 x130))) (x61 (= x68 (x3 x68 x68)))) (let ((x59 (not x45)) (x111 (not x47)) (x137 (not x113)) (x77 (not x61)) (x98 (not x62))) (or (or (and x62 x98) (or (or (and (= (x3 x13 x158) x13) x59) (or (and (= (x3 x13 x63) x13) x137) (and x77 (= (x3 x13 x68) x13)))) (and (= (x3 x13 x130) x13) x111))) (or (or (or (or (or (and x77 (= (x3 x130 x68) x130)) (and (= (x3 x130 x63) x130) x137)) (and x59 (= x130 (x3 x130 x158)))) (and x47 x111)) (and (= (x3 x130 x13) x130) x98)) (or (or (or (or (or (and x59 (= x63 (x3 x63 x158))) (or (and x113 x137) (and x77 (= (x3 x63 x68) x63)))) (and x111 (= (x3 x63 x130) x63))) (and x98 (= (x3 x63 x13) x63))) (or (or (or (or (and x77 x61) (and (= x68 (x3 x68 x63)) x137)) (and x59 (= x68 (x3 x68 x158)))) (and (= x68 (x3 x68 x130)) x111)) (and (= (x3 x68 x13) x68) x98))) (or (and (= x158 (x3 x158 x13)) x98) (or (and x111 (= x158 (x3 x158 x130))) (or (or (and x77 (= x158 (x3 x158 x68))) (and x137 (= x158 (x3 x158 x63)))) (and x45 x59))))))))))
(assert (let ((x65 (x3 x158 x13)) (x82 (x3 x63 x13)) (x111 (x3 x63 x68)) (x45 (x3 x158 x68)) (x98 (x3 x68 x68)) (x143 (x3 x63 x130)) (x61 (x3 x158 x63)) (x62 (x3 x13 x68)) (x12 (x3 x13 x158)) (x114 (x3 x63 x158)) (x66 (x3 x158 x130)) (x117 (x3 x13 x130)) (x44 (x3 x130 x130)) (x42 (x3 x13 x13)) (x153 (x3 x158 x158)) (x59 (x3 x13 x63)) (x137 (x3 x68 x63)) (x113 (x3 x63 x63)) (x67 (x3 x68 x158)) (x41 (x3 x68 x130)) (x89 (x3 x68 x13)) (x47 (x3 x130 x68)) (x77 (x3 x130 x63)) (x70 (x3 x130 x13)) (x104 (x3 x130 x158))) (and (and (and (and (and (not (= x104 x70)) (and (and (not (= x70 x47)) (and (and (and (and (and (not (= x47 x77)) (not (= x77 x104))) (not (= x44 x77))) (not (= x70 x77))) (not (= x104 x47))) (not (= x44 x47)))) (not (= x44 x104)))) (not (= x70 x44))) (and (and (not (= x66 x65)) (and (not (= x153 x65)) (and (not (= x66 x153)) (and (and (and (and (and (not (= x61 x66)) (and (not (= x61 x153)) (not (= x61 x45)))) (not (= x65 x61))) (not (= x153 x45))) (not (= x45 x66))) (not (= x45 x65)))))) (and (and (not (= x89 x41)) (and (and (and (and (not (= x41 x98)) (and (and (not (= x137 x89)) (and (and (not (= x98 x137)) (not (= x67 x137))) (not (= x41 x137)))) (not (= x98 x67)))) (not (= x98 x89))) (not (= x41 x67))) (not (= x89 x67)))) (and (not (= x82 x143)) (and (and (and (and (not (= x111 x143)) (and (not (= x114 x111)) (and (and (and (not (= x113 x114)) (not (= x111 x113))) (not (= x143 x113))) (not (= x82 x113))))) (not (= x82 x111))) (not (= x114 x143))) (not (= x114 x82))))))) (and (not (= x117 x42)) (and (not (= x12 x42)) (and (and (not (= x62 x42)) (and (not (= x62 x117)) (and (not (= x62 x12)) (and (and (not (= x59 x117)) (and (not (= x12 x59)) (not (= x59 x62)))) (not (= x59 x42)))))) (not (= x12 x117)))))) (and (and (and (not (= x65 x42)) (and (and (not (= x89 x42)) (and (and (and (and (not (= x82 x70)) (and (not (= x89 x82)) (not (= x82 x65)))) (not (= x82 x42))) (not (= x89 x65))) (not (= x70 x89)))) (not (= x65 x70)))) (not (= x42 x70))) (and (and (and (not (= x66 x117)) (and (not (= x66 x44)) (and (not (= x117 x41)) (and (not (= x41 x44)) (and (and (not (= x117 x143)) (and (not (= x44 x143)) (and (not (= x66 x143)) (not (= x143 x41))))) (not (= x66 x41))))))) (not (= x44 x117))) (and (and (and (not (= x77 x59)) (and (and (and (not (= x137 x59)) (and (and (not (= x61 x137)) (and (not (= x59 x113)) (and (and (not (= x137 x113)) (not (= x113 x61))) (not (= x77 x113))))) (not (= x77 x137)))) (not (= x77 x61))) (not (= x61 x59)))) (and (and (and (and (not (= x62 x98)) (and (not (= x98 x47)) (and (and (and (and (not (= x45 x111)) (not (= x98 x111))) (not (= x47 x111))) (not (= x62 x111))) (not (= x98 x45))))) (not (= x47 x45))) (not (= x62 x45))) (not (= x62 x47)))) (and (not (= x12 x104)) (and (not (= x153 x12)) (and (not (= x104 x153)) (and (and (not (= x67 x104)) (and (not (= x153 x67)) (and (and (not (= x104 x114)) (and (not (= x153 x114)) (not (= x67 x114)))) (not (= x114 x12))))) (not (= x67 x12))))))))))))
(assert (and (and (and (and (or (or (= (x3 (x3 x130 x63) x63) x130) (or (= (x3 (x3 x158 x63) x63) x158) (or (= x63 (x3 (x3 x63 x63) x63)) (= (x3 (x3 x68 x63) x63) x68)))) (= x13 (x3 (x3 x13 x63) x63))) (or (or (or (= x158 (x3 (x3 x158 x68) x68)) (or (= (x3 (x3 x68 x68) x68) x68) (= x63 (x3 (x3 x63 x68) x68)))) (= (x3 (x3 x130 x68) x68) x130)) (= (x3 (x3 x13 x68) x68) x13))) (or (or (= x130 (x3 (x3 x130 x158) x158)) (or (= (x3 (x3 x158 x158) x158) x158) (or (= x68 (x3 (x3 x68 x158) x158)) (= x63 (x3 (x3 x63 x158) x158))))) (= (x3 (x3 x13 x158) x158) x13))) (or (= (x3 (x3 x13 x130) x130) x13) (or (or (= (x3 (x3 x158 x130) x130) x158) (or (= (x3 (x3 x68 x130) x130) x68) (= x63 (x3 (x3 x63 x130) x130)))) (= x130 (x3 (x3 x130 x130) x130))))) (or (or (or (= (x3 (x3 x158 x13) x13) x158) (or (= x68 (x3 (x3 x68 x13) x13)) (= x63 (x3 (x3 x63 x13) x13)))) (= x130 (x3 (x3 x130 x13) x13))) (= (x3 (x3 x13 x13) x13) x13))))
(assert (let ((x77 (x3 x130 x130)) (x59 (x3 x13 x13)) (x61 (x3 x158 x158)) (x137 (x3 x68 x68)) (x113 (x3 x63 x63))) (or (and (not (= x13 x59)) (and (not (= x77 x13)) (and (and (not (= x113 x13)) (not (= x13 x137))) (not (= x13 x61))))) (or (or (and (not (= x158 x59)) (and (and (and (not (= x158 x113)) (not (= x137 x158))) (not (= x158 x61))) (not (= x158 x77)))) (or (and (not (= x59 x68)) (and (and (not (= x61 x68)) (and (not (= x137 x68)) (not (= x68 x113)))) (not (= x77 x68)))) (and (and (and (not (= x63 x61)) (and (not (= x63 x113)) (not (= x137 x63)))) (not (= x77 x63))) (not (= x63 x59))))) (and (not (= x130 x59)) (and (not (= x77 x130)) (and (not (= x130 x61)) (and (not (= x113 x130)) (not (= x130 x137))))))))))
(assert (or (and (and (and (not (= (x3 (x3 x13 x158) x158) x158)) (and (not (= (x3 (x3 x13 x68) x68) x68)) (not (= (x3 (x3 x13 x63) x63) x63)))) (not (= x130 (x3 (x3 x13 x130) x130)))) (not (= (x3 (x3 x13 x13) x13) x13))) (or (or (or (and (and (and (and (not (= (x3 (x3 x63 x68) x68) x68)) (not (= x63 (x3 (x3 x63 x63) x63)))) (not (= x158 (x3 (x3 x63 x158) x158)))) (not (= x130 (x3 (x3 x63 x130) x130)))) (not (= (x3 (x3 x63 x13) x13) x13))) (and (not (= x13 (x3 (x3 x68 x13) x13))) (and (not (= x130 (x3 (x3 x68 x130) x130))) (and (and (not (= (x3 (x3 x68 x63) x63) x63)) (not (= (x3 (x3 x68 x68) x68) x68))) (not (= (x3 (x3 x68 x158) x158) x158)))))) (and (not (= (x3 (x3 x158 x13) x13) x13)) (and (not (= (x3 (x3 x158 x130) x130) x130)) (and (and (not (= (x3 (x3 x158 x63) x63) x63)) (not (= (x3 (x3 x158 x68) x68) x68))) (not (= (x3 (x3 x158 x158) x158) x158)))))) (and (not (= x13 (x3 (x3 x130 x13) x13))) (and (not (= (x3 (x3 x130 x130) x130) x130)) (and (and (not (= x68 (x3 (x3 x130 x68) x68))) (not (= x63 (x3 (x3 x130 x63) x63)))) (not (= x158 (x3 (x3 x130 x158) x158)))))))))
(assert (let ((x76 (x3 x68 x68)) (x46 (x3 x130 x68)) (x100 (x3 x130 x158)) (x75 (x3 x63 x68)) (x9 (x3 x63 x63)) (x10 (x3 x13 x130)) (x21 (x3 x158 x63)) (x53 (x3 x68 x130)) (x36 (x3 x158 x130)) (x149 (x3 x13 x63)) (x80 (x3 x158 x13)) (x152 (x3 x68 x13)) (x26 (x3 x13 x158)) (x139 (x3 x158 x158)) (x146 (x3 x13 x13)) (x109 (x3 x130 x13)) (x133 (x3 x63 x158)) (x105 (x3 x68 x158)) (x126 (x3 x130 x130)) (x102 (x3 x158 x68)) (x147 (x3 x63 x130)) (x148 (x3 x68 x63)) (x55 (x3 x13 x68)) (x49 (x3 x63 x13)) (x118 (x3 x130 x63))) (let ((x59 (not (= x63 x21))) (x153 (not (= x63 x53))) (x43 (not (= x149 x13))) (x144 (not (= x68 x105))) (x56 (not (= x148 x68))) (x128 (not (= x158 x26))) (x137 (not (= x148 x63))) (x65 (not (= x63 x10))) (x104 (not (= x100 x63))) (x124 (not (= x147 x130))) (x71 (not (= x76 x68))) (x72 (not (= x158 x146))) (x156 (not (= x26 x130))) (x17 (not (= x68 x49))) (x82 (not (= x26 x63))) (x2 (not (= x36 x68))) (x116 (not (= x68 x118))) (x89 (not (= x80 x63))) (x90 (not (= x105 x158))) (x57 (not (= x68 x9))) (x52 (not (= x158 x49))) (x86 (not (= x158 x100))) (x159 (not (= x133 x130))) (x141 (not (= x76 x130))) (x132 (not (= x10 x13))) (x67 (not (= x46 x63))) (x35 (not (= x68 x126))) (x127 (not (= x21 x158))) (x5 (not (= x139 x158))) (x131 (not (= x100 x130))) (x112 (not (= x9 x13))) (x45 (not (= x105 x63))) (x113 (not (= x9 x63))) (x41 (not (= x63 x149))) (x64 (not (= x46 x158))) (x123 (not (= x158 x152))) (x107 (not (= x158 x80))) (x16 (not (= x68 x100))) (x150 (not (= x9 x158))) (x119 (not (= x76 x13))) (x101 (not (= x148 x158))) (x81 (not (= x9 x130))) (x114 (not (= x63 x147))) (x37 (not (= x147 x158))) (x122 (not (= x130 x55))) (x23 (not (= x118 x13))) (x47 (not (= x139 x63))) (x15 (not (= x130 x152))) (x140 (not (= x55 x68))) (x94 (not (= x146 x68))) (x84 (not (= x158 x75))) (x28 (not (= x109 x130))) (x99 (not (= x49 x13))) (x6 (not (= x105 x130))) (x42 (not (= x63 x146))) (x88 (not (= x109 x158))) (x8 (not (= x133 x13))) (x115 (not (= x158 x126))) (x29 (not (= x46 x68))) (x14 (not (= x158 x102))) (x31 (not (= x68 x149))) (x91 (not (= x68 x53))) (x157 (not (= x130 x102))) (x38 (not (= x13 x148))) (x154 (not (= x158 x149))) (x106 (not (= x102 x68))) (x44 (not (= x63 x55))) (x54 (not (= x147 x13))) (x143 (not (= x63 x126))) (x97 (not (= x158 x76))) (x74 (not (= x13 x152))) (x7 (not (= x130 x139))) (x135 (not (= x13 x105))) (x30 (not (= x102 x13))) (x34 (not (= x46 x13))) (x103 (not (= x13 x146))) (x79 (not (= x13 x75))) (x136 (not (= x130 x146))) (x111 (not (= x133 x63))) (x142 (not (= x130 x10))) (x95 (not (= x118 x130))) (x25 (not (= x130 x36))) (x129 (not (= x55 x13))) (x87 (not (= x10 x158))) (x1 (not (= x13 x21))) (x151 (not (= x149 x130))) (x60 (not (= x68 x80))) (x110 (not (= x53 x130))) (x33 (not (= x80 x13))) (x58 (not (= x68 x139))) (x83 (not (= x130 x75))) (x85 (not (= x68 x152))) (x66 (not (= x63 x49))) (x155 (not (= x133 x158))) (x134 (not (= x158 x55))) (x145 (not (= x133 x68))) (x48 (not (= x147 x68))) (x121 (not (= x126 x130))) (x96 (not (= x13 x26))) (x12 (not (= x36 x63))) (x32 (not (= x10 x68))) (x93 (not (= x158 x36))) (x125 (not (= x21 x68))) (x22 (not (= x158 x118))) (x108 (not (= x100 x13))) (x19 (not (= x49 x130))) (x62 (not (= x63 x118))) (x70 (not (= x63 x109))) (x11 (not (= x130 x46))) (x73 (not (= x13 x139))) (x39 (not (= x68 x26))) (x50 (not (= x53 x13))) (x117 (not (= x63 x152))) (x27 (not (= x68 x75))) (x138 (not (= x53 x158))) (x61 (not (= x63 x75))) (x78 (not (= x80 x130))) (x40 (not (= x68 x109))) (x98 (not (= x63 x102))) (x77 (not (= x63 x76))) (x51 (not (= x13 x126))) (x24 (not (= x109 x13))) (x120 (not (= x130 x21))) (x20 (not (= x36 x13))) (x4 (not (= x130 x148)))) (or (and (and (and (or x132 x24) (and (or x96 x33) (and (or x43 x99) (or x74 x129)))) (or x103 x103)) (and (and (and (and (or x20 x108) (and (and (or x1 x8) (or x30 x135)) (or x73 x73))) (or x96 x33)) (and (and (or x43 x99) (and (and (and (or x112 x112) (or x79 x38)) (or x1 x8)) (or x23 x54))) (and (or x74 x129) (and (or x50 x34) (and (and (or x38 x79) (or x119 x119)) (or x135 x30)))))) (and (or x132 x24) (and (or x51 x51) (and (and (or x50 x34) (or x54 x23)) (or x108 x20)))))) (or (or (or (and (and (and (or x70 x65) (and (and (or x104 x12) (and (or x67 x153) (or x114 x62))) (or x143 x143))) (and (and (and (or x66 x41) (and (and (and (or x113 x113) (or x137 x61)) (or x59 x111)) (or x62 x114))) (and (and (and (or x98 x45) (and (or x77 x77) (or x61 x137))) (or x153 x67)) (or x44 x117))) (and (and (or x104 x12) (and (and (or x98 x45) (or x59 x111)) (or x47 x47))) (or x89 x82)))) (and (or x42 x42) (and (and (or x89 x82) (and (or x41 x66) (or x44 x117))) (or x70 x65)))) (and (and (and (and (and (and (or x116 x48) (and (and (or x57 x57) (or x56 x27)) (or x145 x125))) (or x17 x31)) (and (and (and (and (or x71 x71) (or x27 x56)) (or x106 x144)) (or x91 x29)) (or x140 x85))) (and (or x39 x60) (and (and (or x58 x58) (and (or x125 x145) (or x106 x144))) (or x16 x2)))) (and (or x40 x32) (and (and (or x16 x2) (and (or x91 x29) (or x116 x48))) (or x35 x35)))) (and (or x94 x94) (and (and (or x39 x60) (and (or x140 x85) (or x31 x17))) (or x40 x32))))) (and (and (and (or x87 x88) (and (or x107 x128) (and (or x52 x154) (or x134 x123)))) (or x72 x72)) (and (and (and (or x107 x128) (and (and (and (or x90 x14) (or x127 x155)) (or x5 x5)) (or x93 x86))) (and (and (or x154 x52) (and (and (or x155 x127) (and (or x101 x84) (or x150 x150))) (or x37 x22))) (and (or x123 x134) (and (or x138 x64) (and (and (or x97 x97) (or x101 x84)) (or x90 x14)))))) (and (or x87 x88) (and (and (and (or x37 x22) (or x138 x64)) (or x86 x93)) (or x115 x115)))))) (and (and (and (or x142 x28) (and (or x121 x121) (and (or x25 x131) (and (or x110 x11) (or x124 x95))))) (and (and (and (and (or x11 x110) (and (and (or x4 x83) (or x141 x141)) (or x6 x157))) (or x15 x122)) (and (and (or x95 x124) (and (and (or x83 x4) (or x81 x81)) (or x120 x159))) (or x151 x19))) (and (or x156 x78) (and (or x131 x25) (and (or x7 x7) (and (or x159 x120) (or x157 x6))))))) (and (and (and (or x78 x156) (and (or x15 x122) (or x19 x151))) (or x28 x142)) (or x136 x136))))))))
(assert (let ((x42 (x3 x13 x13)) (x59 (x3 x13 x63)) (x65 (x3 x158 x13)) (x89 (x3 x68 x13)) (x82 (x3 x63 x13)) (x77 (x3 x130 x63)) (x111 (x3 x63 x68)) (x41 (x3 x68 x130)) (x61 (x3 x158 x63)) (x98 (x3 x68 x68)) (x45 (x3 x158 x68)) (x143 (x3 x63 x130)) (x137 (x3 x68 x63)) (x153 (x3 x158 x158)) (x117 (x3 x13 x130)) (x47 (x3 x130 x68)) (x62 (x3 x13 x68)) (x12 (x3 x13 x158)) (x104 (x3 x130 x158)) (x66 (x3 x158 x130)) (x67 (x3 x68 x158)) (x113 (x3 x63 x63)) (x44 (x3 x130 x130)) (x114 (x3 x63 x158)) (x70 (x3 x130 x13))) (or (or (or (or (and (and (not (= x130 (x3 x77 x77))) (and (not (= (x3 x61 x61) x158)) (and (not (= (x3 x113 x113) x63)) (not (= (x3 x137 x137) x68))))) (not (= (x3 x59 x59) x13))) (and (and (and (not (= x158 (x3 x45 x45))) (and (not (= x63 (x3 x111 x111))) (not (= x68 (x3 x98 x98))))) (not (= (x3 x47 x47) x130))) (not (= x13 (x3 x62 x62))))) (and (and (and (and (not (= x63 (x3 x114 x114))) (not (= (x3 x67 x67) x68))) (not (= (x3 x153 x153) x158))) (not (= (x3 x104 x104) x130))) (not (= (x3 x12 x12) x13)))) (and (not (= (x3 x117 x117) x13)) (and (not (= (x3 x44 x44) x130)) (and (and (not (= x68 (x3 x41 x41))) (not (= (x3 x143 x143) x63))) (not (= x158 (x3 x66 x66))))))) (and (not (= (x3 x42 x42) x13)) (and (not (= (x3 x70 x70) x130)) (and (and (not (= x68 (x3 x89 x89))) (not (= x63 (x3 x82 x82)))) (not (= x158 (x3 x65 x65)))))))))
(assert (and (not (= x13 x130)) (and (not (= x13 x158)) (and (and (and (and (not (= x68 x158)) (and (not (= x63 x13)) (and (and (not (= x68 x63)) (not (= x63 x158))) (not (= x130 x63))))) (not (= x68 x130))) (not (= x13 x68))) (not (= x158 x130))))))
(assert (not (and (and (= (x3 x13 x130) x68) (and (and (and (and (and (and (and (= x130 (x3 x130 x68)) (and (and (and (and (and (= x63 (x3 x158 x68)) (and (and (= (x3 x68 x13) x130) (and (= (x3 x68 x130) x158) (and (= (x3 x68 x158) x13) (and (= (x3 x68 x68) x68) (and (= (x3 x68 x63) x63) (and (and (and (and (= (x3 x63 x68) x158) (= (x3 x63 x63) x68)) (= (x3 x63 x158) x63)) (= (x3 x63 x130) x130)) (= x13 (x3 x63 x13)))))))) (= (x3 x158 x63) x158))) (= x130 (x3 x158 x158))) (= x13 (x3 x158 x130))) (= x68 (x3 x158 x13))) (= (x3 x130 x63) x13))) (= x68 (x3 x130 x158))) (= x63 (x3 x130 x130))) (= (x3 x130 x13) x158)) (= (x3 x13 x63) x130)) (= x13 (x3 x13 x68))) (= (x3 x13 x158) x158))) (= x63 (x3 x13 x13)))))
(assert (or (or (and (not (= x13 (x3 x13 (x3 x130 x13)))) (and (and (not (= (x3 x158 (x3 x130 x158)) x158)) (and (not (= x63 (x3 x63 (x3 x130 x63)))) (not (= (x3 x68 (x3 x130 x68)) x68)))) (not (= x130 (x3 x130 (x3 x130 x130)))))) (or (and (and (not (= (x3 x130 (x3 x158 x130)) x130)) (and (and (not (= x68 (x3 x68 (x3 x158 x68)))) (not (= (x3 x63 (x3 x158 x63)) x63))) (not (= (x3 x158 (x3 x158 x158)) x158)))) (not (= x13 (x3 x13 (x3 x158 x13))))) (or (and (and (and (and (not (= x63 (x3 x63 (x3 x63 x63)))) (not (= x68 (x3 x68 (x3 x63 x68))))) (not (= (x3 x158 (x3 x63 x158)) x158))) (not (= (x3 x130 (x3 x63 x130)) x130))) (not (= x13 (x3 x13 (x3 x63 x13))))) (and (not (= (x3 x13 (x3 x68 x13)) x13)) (and (not (= (x3 x130 (x3 x68 x130)) x130)) (and (not (= (x3 x158 (x3 x68 x158)) x158)) (and (not (= x63 (x3 x63 (x3 x68 x63)))) (not (= (x3 x68 (x3 x68 x68)) x68))))))))) (and (and (and (and (not (= (x3 x63 (x3 x13 x63)) x63)) (not (= x68 (x3 x68 (x3 x13 x68))))) (not (= x158 (x3 x158 (x3 x13 x158))))) (not (= x130 (x3 x130 (x3 x13 x130))))) (not (= (x3 x13 (x3 x13 x13)) x13)))))
(assert (and (= (x3 x13 x63) x130) (and (and (= x68 (x3 x13 x130)) (= (x3 x13 x13) x63)) (= x158 (x3 x63 x68)))))
(assert (and (and (and (or (= x158 (x3 (x3 x13 x158) x13)) (or (= x158 (x3 (x3 x130 x158) x130)) (or (= x158 (x3 (x3 x158 x158) x158)) (or (= (x3 (x3 x63 x158) x63) x158) (= (x3 (x3 x68 x158) x68) x158))))) (and (or (or (= x63 (x3 (x3 x130 x63) x130)) (or (= x63 (x3 (x3 x158 x63) x158)) (or (= (x3 (x3 x68 x63) x68) x63) (= x63 (x3 (x3 x63 x63) x63))))) (= x63 (x3 (x3 x13 x63) x13))) (or (or (or (or (= x68 (x3 (x3 x68 x68) x68)) (= (x3 (x3 x63 x68) x63) x68)) (= x68 (x3 (x3 x158 x68) x158))) (= (x3 (x3 x130 x68) x130) x68)) (= x68 (x3 (x3 x13 x68) x13))))) (or (or (= (x3 (x3 x130 x130) x130) x130) (or (or (= x130 (x3 (x3 x68 x130) x68)) (= x130 (x3 (x3 x63 x130) x63))) (= x130 (x3 (x3 x158 x130) x158)))) (= (x3 (x3 x13 x130) x13) x130))) (or (= (x3 (x3 x13 x13) x13) x13) (or (or (= x13 (x3 (x3 x158 x13) x158)) (or (= (x3 (x3 x63 x13) x63) x13) (= x13 (x3 (x3 x68 x13) x68)))) (= x13 (x3 (x3 x130 x13) x130))))))
(assert (or (and (and (and (and (not (= x13 (x3 x63 (x3 x13 x63)))) (not (= (x3 x68 (x3 x13 x68)) x13))) (not (= (x3 x158 (x3 x13 x158)) x13))) (not (= x13 (x3 x130 (x3 x13 x130))))) (not (= (x3 x13 (x3 x13 x13)) x13))) (or (or (and (not (= (x3 x13 (x3 x158 x13)) x158)) (and (and (not (= (x3 x158 (x3 x158 x158)) x158)) (and (not (= (x3 x63 (x3 x158 x63)) x158)) (not (= x158 (x3 x68 (x3 x158 x68)))))) (not (= x158 (x3 x130 (x3 x158 x130)))))) (or (and (and (not (= (x3 x130 (x3 x63 x130)) x63)) (and (and (not (= (x3 x68 (x3 x63 x68)) x63)) (not (= x63 (x3 x63 (x3 x63 x63))))) (not (= x63 (x3 x158 (x3 x63 x158)))))) (not (= (x3 x13 (x3 x63 x13)) x63))) (and (and (and (and (not (= (x3 x68 (x3 x68 x68)) x68)) (not (= (x3 x63 (x3 x68 x63)) x68))) (not (= x68 (x3 x158 (x3 x68 x158))))) (not (= x68 (x3 x130 (x3 x68 x130))))) (not (= x68 (x3 x13 (x3 x68 x13))))))) (and (not (= x130 (x3 x13 (x3 x130 x13)))) (and (not (= (x3 x130 (x3 x130 x130)) x130)) (and (and (not (= x130 (x3 x68 (x3 x130 x68)))) (not (= (x3 x63 (x3 x130 x63)) x130))) (not (= x130 (x3 x158 (x3 x130 x158))))))))))
(assert (and (or (= (x3 (x3 x13 x13) x13) x13) (or (= (x3 (x3 x13 x130) x13) x130) (or (or (= (x3 (x3 x13 x68) x13) x68) (= (x3 (x3 x13 x63) x13) x63)) (= x158 (x3 (x3 x13 x158) x13))))) (and (and (or (or (or (or (= (x3 (x3 x158 x68) x158) x68) (= (x3 (x3 x158 x63) x158) x63)) (= x158 (x3 (x3 x158 x158) x158))) (= (x3 (x3 x158 x130) x158) x130)) (= x13 (x3 (x3 x158 x13) x158))) (and (or (= (x3 (x3 x68 x13) x68) x13) (or (= x130 (x3 (x3 x68 x130) x68)) (or (= (x3 (x3 x68 x158) x68) x158) (or (= x63 (x3 (x3 x68 x63) x68)) (= x68 (x3 (x3 x68 x68) x68)))))) (or (or (= x130 (x3 (x3 x63 x130) x63)) (or (or (= x63 (x3 (x3 x63 x63) x63)) (= x68 (x3 (x3 x63 x68) x63))) (= (x3 (x3 x63 x158) x63) x158))) (= (x3 (x3 x63 x13) x63) x13)))) (or (or (or (= x158 (x3 (x3 x130 x158) x130)) (or (= x68 (x3 (x3 x130 x68) x130)) (= x63 (x3 (x3 x130 x63) x130)))) (= (x3 (x3 x130 x130) x130) x130)) (= (x3 (x3 x130 x13) x130) x13)))))
(assert (let ((x89 (x3 x68 x13)) (x57 (x3 x13 x68)) (x90 (x3 x13 x130)) (x19 (x3 x13 x13)) (x59 (x3 x63 x130)) (x111 (x3 x63 x13)) (x152 (x3 x158 x158)) (x47 (x3 x158 x63)) (x61 (x3 x63 x68)) (x117 (x3 x68 x158)) (x137 (x3 x63 x63)) (x82 (x3 x68 x130)) (x77 (x3 x63 x158)) (x62 (x3 x130 x63)) (x101 (x3 x130 x130)) (x84 (x3 x130 x13)) (x139 (x3 x130 x158)) (x58 (x3 x13 x158)) (x125 (x3 x158 x13)) (x45 (x3 x68 x63)) (x114 (x3 x13 x63)) (x9 (x3 x130 x68)) (x44 (x3 x68 x68)) (x55 (x3 x158 x130)) (x42 (x3 x158 x68))) (let ((x118 (= x130 x44)) (x83 (= x13 x55)) (x2 (= x130 x152)) (x149 (= x13 x61)) (x143 (= x61 x63)) (x43 (= x114 x13)) (x119 (= x89 x158)) (x105 (= x63 x117)) (x36 (= x47 x158)) (x140 (= x9 x63)) (x50 (= x89 x130)) (x142 (= x68 x19)) (x11 (= x63 x84)) (x1 (= x125 x158)) (x146 (= x62 x68)) (x16 (= x130 x117)) (x128 (= x130 x55)) (x23 (= x130 x58)) (x141 (= x13 x101)) (x8 (= x158 x84)) (x14 (= x68 x101)) (x144 (= x68 x152)) (x4 (= x13 x82)) (x108 (= x130 x125)) (x106 (= x117 x68)) (x155 (= x55 x68)) (x151 (= x68 x90)) (x15 (= x68 x89)) (x138 (= x82 x158)) (x70 (= x44 x68)) (x39 (= x59 x63)) (x124 (= x125 x63)) (x133 (= x158 x44)) (x123 (= x82 x130)) (x154 (= x9 x130)) (x34 (= x111 x130)) (x35 (= x42 x13)) (x85 (= x63 x139)) (x71 (= x77 x63)) (x121 (= x68 x58)) (x32 (= x55 x63)) (x78 (= x84 x68)) (x113 (= x63 x137)) (x25 (= x57 x68)) (x24 (= x84 x13)) (x122 (= x111 x68)) (x110 (= x63 x19)) (x27 (= x63 x47)) (x29 (= x130 x42)) (x99 (= x57 x13)) (x10 (= x117 x13)) (x156 (= x68 x125)) (x80 (= x158 x77)) (x31 (= x152 x13)) (x37 (= x158 x139)) (x93 (= x101 x158)) (x107 (= x130 x101)) (x12 (= x45 x63)) (x134 (= x130 x59)) (x86 (= x55 x158)) (x41 (= x44 x63)) (x157 (= x58 x63)) (x26 (= x117 x158)) (x131 (= x114 x68)) (x76 (= x42 x63)) (x148 (= x61 x158)) (x40 (= x63 x101)) (x22 (= x9 x158)) (x67 (= x137 x158)) (x33 (= x89 x13)) (x109 (= x77 x13)) (x51 (= x130 x19)) (x153 (= x130 x137)) (x64 (= x59 x158)) (x120 (= x63 x114)) (x115 (= x62 x130)) (x136 (= x158 x57)) (x6 (= x90 x63)) (x65 (= x68 x61)) (x60 (= x63 x82)) (x94 (= x9 x68)) (x52 (= x130 x139)) (x75 (= x158 x45)) (x5 (= x158 x62)) (x73 (= x57 x130)) (x72 (= x139 x13)) (x104 (= x13 x137)) (x159 (= x63 x57)) (x87 (= x13 x62)) (x38 (= x90 x158)) (x132 (= x13 x125)) (x135 (= x130 x114)) (x46 (= x68 x42)) (x79 (= x158 x111)) (x53 (= x47 x68)) (x102 (= x152 x63)) (x96 (= x111 x13)) (x145 (= x77 x68)) (x48 (= x47 x130)) (x98 (= x68 x137)) (x95 (= x89 x63)) (x91 (= x77 x130)) (x49 (= x13 x45)) (x7 (= x63 x111)) (x116 (= x152 x158)) (x88 (= x13 x9)) (x150 (= x68 x139)) (x97 (= x59 x68)) (x54 (= x90 x130)) (x103 (= x13 x19)) (x74 (= x13 x90)) (x30 (= x19 x158)) (x21 (= x130 x45)) (x28 (= x158 x114)) (x112 (= x158 x58)) (x20 (= x130 x84)) (x66 (= x68 x45)) (x100 (= x42 x158)) (x56 (= x44 x13)) (x129 (= x13 x58)) (x126 (= x47 x13)) (x17 (= x63 x62)) (x81 (= x59 x13)) (x127 (= x82 x68)) (x147 (= x61 x130))) (and (and (and (and (and (and (and (or (or (or x48 (or x21 x153)) x115) x135) (or (or (or x91 (or x147 x153)) x134) x34)) (and (and (or (or x64 (or (or x148 x67) x80)) x79) (or (or x5 (or (or x67 x75) x36)) x28)) (and (and (or x122 (or x97 (or (or x98 x65) x145))) (or (or (or (or x98 x66) x53) x146) x131)) (and (or (or x17 (or x27 (or x12 x113))) x120) (or (or x39 (or (or x143 x113) x71)) x7))))) (and (or (or (or x109 (or x104 x149)) x81) x96) (or (or x87 (or (or x49 x104) x126)) x43))) (and (and (or (or x4 (or x10 (or x56 x49))) x33) (or (or (or (or x149 x56) x35) x88) x99)) (and (and (and (or (or x22 (or (or x133 x148) x100)) x136) (or (or (or (or x133 x75) x26) x138) x119)) (and (and (or (or (or x76 (or x143 x41)) x140) x159) (or (or (or x105 (or x12 x41)) x60) x95)) (and (or x15 (or x127 (or x106 (or x70 x66)))) (or x25 (or (or x46 (or x70 x65)) x94))))) (and (or x50 (or x123 (or (or x21 x118) x16))) (or x73 (or (or (or x118 x147) x29) x154)))))) (and (and (or (or (or x31 (or x10 x109)) x72) x129) (or (or x83 (or (or x35 x126) x31)) x132)) (and (and (and (and (or (or x150 (or (or x145 x106) x144)) x121) (or (or (or x144 (or x53 x46)) x155) x156)) (and (or x157 (or (or (or x71 x105) x102) x85)) (or (or (or (or x76 x27) x102) x32) x124))) (and (or x1 (or (or (or x100 x36) x116) x86)) (or (or x37 (or (or x80 x26) x116)) x112))) (and (or (or (or (or x91 x16) x2) x52) x23) (or (or (or x2 (or x48 x29)) x128) x108))))) (and (and (or (or (or x72 (or x88 x87)) x141) x24) (or x74 (or x141 (or (or x81 x4) x83)))) (and (and (and (or x8 (or x93 (or x37 (or x22 x5)))) (or (or (or x86 (or x64 x138)) x93) x38)) (and (and (or x78 (or x14 (or (or x146 x94) x150))) (or (or x14 (or x155 (or x127 x97))) x151)) (and (or x11 (or x40 (or x85 (or x17 x140)))) (or x6 (or (or x32 (or x39 x60)) x40))))) (and (or (or (or x52 (or x154 x115)) x107) x20) (or x54 (or x107 (or x128 (or x134 x123)))))))) (and (and (or x103 (or (or (or x33 x96) x132) x24)) (or x103 (or x74 (or (or x43 x99) x129)))) (and (and (or (or (or (or x135 x73) x23) x54) x51) (or x51 (or x20 (or (or x34 x50) x108)))) (and (and (or x30 (or (or (or x119 x79) x1) x8)) (or (or (or (or x136 x28) x112) x38) x30)) (and (and (or x110 (or (or (or x7 x95) x124) x11)) (or x110 (or (or x157 (or x159 x120)) x6))) (and (or (or (or (or x15 x122) x156) x78) x142) (or (or x151 (or x121 (or x131 x25))) x142))))))))))
(assert (let ((x42 (x3 x68 x158)) (x62 (x3 x63 x13)) (x65 (x3 x68 x68)) (x27 (x3 x130 x68)) (x147 (x3 x158 x68)) (x111 (x3 x63 x63)) (x71 (x3 x130 x130)) (x152 (x3 x13 x130)) (x57 (x3 x68 x130)) (x82 (x3 x68 x63)) (x49 (x3 x158 x130)) (x46 (x3 x13 x158)) (x102 (x3 x13 x63)) (x76 (x3 x130 x158)) (x53 (x3 x13 x68)) (x56 (x3 x130 x63)) (x98 (x3 x63 x68)) (x118 (x3 x158 x158)) (x105 (x3 x130 x13)) (x148 (x3 x68 x13)) (x45 (x3 x63 x158)) (x55 (x3 x13 x13)) (x149 (x3 x158 x13)) (x47 (x3 x63 x130)) (x21 (x3 x158 x63))) (let ((x90 (= x130 x65)) (x143 (= x42 x63)) (x23 (= x55 x158)) (x2 (= x118 x68)) (x156 (= x68 x46)) (x14 (= x68 x56)) (x25 (= x63 x55)) (x121 (= x82 x13)) (x75 (= x57 x68)) (x141 (= x130 x71)) (x8 (= x158 x46)) (x50 (= x13 x27)) (x91 (= x68 x147)) (x101 (= x47 x130)) (x145 (= x63 x21)) (x129 (= x105 x13)) (x24 (= x152 x13)) (x7 (= x63 x53)) (x112 (= x13 x21)) (x133 (= x148 x68)) (x66 (= x57 x63)) (x137 (= x63 x98)) (x146 (= x63 x27)) (x81 (= x130 x56)) (x51 (= x46 x130)) (x122 (= x68 x53)) (x32 (= x63 x56)) (x95 (= x13 x45)) (x26 (= x63 x149)) (x159 (= x13 x111)) (x120 (= x105 x130)) (x58 (= x63 x118)) (x96 (= x13 x102)) (x15 (= x13 x42)) (x33 (= x13 x53)) (x99 (= x152 x130)) (x153 (= x68 x98)) (x136 (= x55 x68)) (x67 (= x63 x82)) (x134 (= x27 x158)) (x20 (= x13 x76)) (x138 (= x68 x71)) (x44 (= x68 x62)) (x88 (= x130 x149)) (x103 (= x13 x55)) (x85 (= x158 x49)) (x39 (= x158 x149)) (x115 (= x21 x130)) (x97 (= x130 x62)) (x83 (= x76 x130)) (x73 (= x13 x149)) (x61 (= x45 x63)) (x94 (= x130 x45)) (x126 (= x57 x158)) (x31 (= x158 x21)) (x64 (= x57 x130)) (x19 (= x65 x13)) (x113 (= x111 x63)) (x72 (= x105 x158)) (x54 (= x56 x13)) (x12 (= x45 x68)) (x36 (= x47 x158)) (x107 (= x130 x49)) (x125 (= x111 x158)) (x60 (= x130 x111)) (x124 (= x46 x63)) (x139 (= x158 x45)) (x10 (= x68 x149)) (x128 (= x76 x158)) (x38 (= x158 x102)) (x43 (= x13 x71)) (x140 (= x118 x158)) (x6 (= x13 x98)) (x29 (= x158 x65)) (x48 (= x68 x21)) (x135 (= x158 x152)) (x78 (= x57 x13)) (x106 (= x98 x158)) (x109 (= x148 x158)) (x28 (= x148 x13)) (x110 (= x63 x152)) (x87 (= x71 x158)) (x119 (= x158 x53)) (x11 (= x13 x47)) (x59 (= x62 x63)) (x108 (= x130 x53)) (x35 (= x49 x68)) (x40 (= x130 x98)) (x117 (= x63 x148)) (x154 (= x56 x158)) (x86 (= x148 x130)) (x123 (= x118 x130)) (x74 (= x130 x55)) (x30 (= x49 x13)) (x151 (= x102 x68)) (x37 (= x76 x68)) (x114 (= x68 x111)) (x34 (= x102 x130)) (x104 (= x63 x65)) (x9 (= x42 x68)) (x84 (= x71 x63)) (x70 (= x68 x65)) (x127 (= x105 x63)) (x41 (= x68 x47)) (x80 (= x158 x62)) (x22 (= x130 x42)) (x132 (= x13 x46)) (x100 (= x63 x49)) (x5 (= x68 x27)) (x89 (= x82 x68)) (x157 (= x102 x63)) (x1 (= x118 x13)) (x52 (= x147 x130)) (x155 (= x130 x82)) (x131 (= x13 x62)) (x93 (= x105 x68)) (x144 (= x147 x63)) (x142 (= x68 x152)) (x79 (= x13 x147)) (x16 (= x158 x42)) (x17 (= x158 x147)) (x116 (= x158 x82)) (x4 (= x130 x27)) (x77 (= x47 x63)) (x150 (= x63 x76))) (or (or (or (or (and (and (and (and (and (or (not x122) x19) (or x121 (not x151))) (or (not x156) x15)) (or (not x142) x78)) (or x28 (not x136))) (and (and (and (or (not x138) x64) (and (and (or (not x5) x90) (or (not x14) x155)) (or (not x37) x22))) (or x86 (not x93))) (and (and (or x109 (not x10)) (and (or (not x35) x126) (and (or (not x2) x16) (and (or x116 (not x48)) (or x29 (not x91)))))) (and (and (and (or x66 (not x41)) (and (and (or (not x114) x67) (or x104 (not x153))) (or (not x12) x143))) (or (not x44) x117)) (and (and (and (or (not x9) x9) (and (or (not x89) x89) (or (not x70) x70))) (or x75 (not x75))) (or x133 (not x133))))))) (and (and (or x131 (not x25)) (and (and (or (not x124) x95) (and (or x159 (not x157)) (or (not x7) x6))) (or (not x110) x11))) (and (and (and (and (and (or (not x58) x139) (and (or (not x144) x106) (or x125 (not x145)))) (or (not x100) x36)) (or x80 (not x26))) (and (and (or (not x117) x44) (and (or (not x66) x41) (and (or x12 (not x143)) (and (or (not x104) x153) (or (not x67) x114))))) (and (or x59 (not x59)) (and (or x77 (not x77)) (and (and (or (not x137) x137) (or (not x113) x113)) (or (not x61) x61)))))) (and (or x97 (not x127)) (and (and (and (or x60 (not x32)) (or x40 (not x146))) (or (not x150) x94)) (or x101 (not x84))))))) (and (and (or (not x23) x73) (and (and (and (or x112 (not x38)) (or (not x119) x79)) (or (not x8) x1)) (or x30 (not x135)))) (and (and (and (or x107 (not x87)) (and (and (or x115 (not x154)) (or x52 (not x134))) (or (not x128) x123))) (or x88 (not x72))) (and (and (and (or x26 (not x80)) (and (and (or (not x139) x58) (and (or (not x106) x144) (or (not x125) x145))) (or (not x36) x100))) (and (or x10 (not x109)) (and (or (not x126) x35) (and (or (not x16) x2) (and (or (not x116) x48) (or x91 (not x29))))))) (and (or (not x39) x39) (and (or (not x85) x85) (and (and (or x17 (not x17)) (or (not x31) x31)) (or x140 (not x140))))))))) (and (and (and (or x120 (not x120)) (and (and (and (or x81 (not x81)) (or x4 (not x4))) (or (not x83) x83)) (or x141 (not x141)))) (and (and (or x72 (not x88)) (and (and (and (or x154 (not x115)) (or (not x52) x134)) (or (not x123) x128)) (or (not x107) x87))) (and (and (and (or x84 (not x101)) (and (or x150 (not x94)) (and (or (not x60) x32) (or (not x40) x146)))) (or (not x97) x127)) (and (or (not x86) x93) (and (and (and (or (not x155) x14) (or (not x90) x5)) (or x37 (not x22))) (or x138 (not x64))))))) (and (or (not x74) x129) (and (and (or x20 (not x51)) (and (or x54 (not x34)) (or (not x108) x50))) (or (not x99) x43))))) (and (and (and (and (and (and (or x34 (not x54)) (or x108 (not x50))) (or (not x20) x51)) (or x99 (not x43))) (or x74 (not x129))) (and (and (and (and (or x110 (not x11)) (and (or (not x95) x124) (and (or x157 (not x159)) (or (not x6) x7)))) (or (not x131) x25)) (and (or (not x28) x136) (and (and (or x156 (not x15)) (and (or x122 (not x19)) (or x151 (not x121)))) (or (not x78) x142)))) (and (and (and (or x8 (not x1)) (and (or (not x112) x38) (or (not x79) x119))) (or x135 (not x30))) (or x23 (not x73))))) (and (and (or x24 (not x24)) (and (or x132 (not x132)) (and (or x96 (not x96)) (or x33 (not x33))))) (or (not x103) x103)))))))
(assert (or (= (x3 x13 x13) x13) (or (= (x3 x130 x130) x130) (or (= (x3 x158 x158) x158) (or (= x68 (x3 x68 x68)) (= (x3 x63 x63) x63))))))
(assert (let ((x67 (x3 x158 x68)) (x66 (x3 x130 x158)) (x45 (x3 x68 x158)) (x41 (x3 x130 x68)) (x117 (x3 x130 x13)) (x59 (x3 x63 x13)) (x62 (x3 x68 x13)) (x153 (x3 x158 x158)) (x82 (x3 x13 x63)) (x114 (x3 x158 x63)) (x77 (x3 x63 x130)) (x104 (x3 x158 x130)) (x44 (x3 x130 x130)) (x89 (x3 x13 x68)) (x143 (x3 x130 x63)) (x70 (x3 x13 x130)) (x12 (x3 x158 x13)) (x113 (x3 x63 x63)) (x111 (x3 x68 x63)) (x47 (x3 x68 x130)) (x65 (x3 x13 x158)) (x61 (x3 x63 x158)) (x98 (x3 x68 x68)) (x137 (x3 x63 x68)) (x42 (x3 x13 x13))) (and (and (and (and (and (and (and (and (or (or (or (= x113 x158) (or (= x113 x68) (= x113 x63))) (= x130 x113)) (= x113 x13)) (or (= x137 x13) (or (= x130 x137) (or (= x137 x158) (or (= x137 x63) (= x68 x137)))))) (or (or (or (= x61 x158) (or (= x61 x68) (= x63 x61))) (= x130 x61)) (= x13 x61))) (or (or (or (= x158 x77) (or (= x77 x63) (= x77 x68))) (= x77 x130)) (= x77 x13))) (or (= x59 x13) (or (or (= x158 x59) (or (= x68 x59) (= x63 x59))) (= x59 x130)))) (and (or (= x62 x13) (or (= x130 x62) (or (or (= x62 x68) (= x62 x63)) (= x158 x62)))) (and (and (or (or (= x130 x45) (or (= x158 x45) (or (= x45 x68) (= x63 x45)))) (= x13 x45)) (and (or (= x13 x98) (or (= x130 x98) (or (= x158 x98) (or (= x98 x63) (= x98 x68))))) (or (= x111 x13) (or (= x111 x130) (or (= x111 x158) (or (= x111 x63) (= x68 x111))))))) (or (or (= x130 x47) (or (= x158 x47) (or (= x68 x47) (= x63 x47)))) (= x47 x13))))) (and (or (or (or (= x158 x12) (or (= x63 x12) (= x12 x68))) (= x12 x130)) (= x13 x12)) (and (or (= x104 x13) (or (= x130 x104) (or (= x104 x158) (or (= x68 x104) (= x63 x104))))) (and (or (or (= x130 x153) (or (or (= x153 x68) (= x63 x153)) (= x153 x158))) (= x153 x13)) (and (or (or (or (or (= x67 x68) (= x67 x63)) (= x158 x67)) (= x67 x130)) (= x13 x67)) (or (= x13 x114) (or (or (= x114 x158) (or (= x68 x114) (= x114 x63))) (= x130 x114)))))))) (and (and (and (and (or (or (= x130 x41) (or (= x158 x41) (or (= x41 x63) (= x68 x41)))) (= x41 x13)) (or (or (= x130 x143) (or (= x143 x158) (or (= x143 x63) (= x143 x68)))) (= x13 x143))) (or (= x66 x13) (or (= x66 x130) (or (or (= x66 x68) (= x63 x66)) (= x158 x66))))) (or (= x44 x13) (or (or (or (= x44 x68) (= x44 x63)) (= x158 x44)) (= x44 x130)))) (or (= x117 x13) (or (or (= x158 x117) (or (= x117 x63) (= x68 x117))) (= x130 x117))))) (and (and (and (or (or (or (= x158 x65) (or (= x68 x65) (= x63 x65))) (= x130 x65)) (= x13 x65)) (and (or (or (= x130 x82) (or (= x82 x158) (or (= x82 x63) (= x82 x68)))) (= x13 x82)) (or (or (= x130 x89) (or (or (= x89 x63) (= x68 x89)) (= x158 x89))) (= x13 x89)))) (or (= x70 x13) (or (= x130 x70) (or (= x70 x158) (or (= x68 x70) (= x63 x70)))))) (or (= x42 x13) (or (or (or (= x68 x42) (= x42 x63)) (= x42 x158)) (= x130 x42)))))))
(assert (or (and (and (and (and (not (= x68 (x3 x13 (x3 x13 x68)))) (not (= x63 (x3 x13 (x3 x13 x63))))) (not (= (x3 x13 (x3 x13 x158)) x158))) (not (= (x3 x13 (x3 x13 x130)) x130))) (not (= x13 (x3 x13 (x3 x13 x13))))) (or (and (not (= (x3 x130 (x3 x130 x13)) x13)) (and (and (not (= x158 (x3 x130 (x3 x130 x158)))) (and (not (= (x3 x130 (x3 x130 x63)) x63)) (not (= (x3 x130 (x3 x130 x68)) x68)))) (not (= (x3 x130 (x3 x130 x130)) x130)))) (or (and (and (and (and (not (= x68 (x3 x158 (x3 x158 x68)))) (not (= (x3 x158 (x3 x158 x63)) x63))) (not (= x158 (x3 x158 (x3 x158 x158))))) (not (= (x3 x158 (x3 x158 x130)) x130))) (not (= x13 (x3 x158 (x3 x158 x13))))) (or (and (and (and (and (not (= x63 (x3 x68 (x3 x68 x63)))) (not (= (x3 x68 (x3 x68 x68)) x68))) (not (= (x3 x68 (x3 x68 x158)) x158))) (not (= x130 (x3 x68 (x3 x68 x130))))) (not (= x13 (x3 x68 (x3 x68 x13))))) (and (and (not (= (x3 x63 (x3 x63 x130)) x130)) (and (and (not (= (x3 x63 (x3 x63 x63)) x63)) (not (= x68 (x3 x63 (x3 x63 x68))))) (not (= x158 (x3 x63 (x3 x63 x158)))))) (not (= (x3 x63 (x3 x63 x13)) x13))))))))
(check-sat)
(exit)
